# NOTE: This script can be modified for different pair styles
# See in.elastic for more info.

# Choose potential
pair_style      lj/cut/coul/long 12.0 9.0   # Might have to redefine after restart

# Setup neighbor style
neighbor        2.0 bin   # Might have to redefine after restart
neigh_modify    every 1 delay 5 check yes   # Might have to redefine after restart

kspace_style    pppm 0.0001   # Might have to redefine after restart
